max: +x11+x12+x13+x14+x15+x16+x17+x21+x22+x23+x24+x25+x26+x27+x31+x32+x33+x34+x35+x36+x37+x41+x42+x43+x44+x45+x46+x47+x51+x52+x53+x54+x55+x56+x57+x61+x62+x63+x64+x65+x66+x67+x71+x72+x73+x74+x75+x76+x77;
+x23+x32-2x11 >= 0;
+x31+x24+x33-2x12 >= 0;
+x32+x21+x25+x34-2x13 >= 0;
+x33+x22+x26+x35-2x14 >= 0;
+x34+x23+x27+x36-2x15 >= 0;
+x35+x24+x37-2x16 >= 0;
+x36+x25-2x17 >= 0;
+x13+x33+x42-2x21 >= 0;
+x14+x41+x34+x43-2x22 >= 0;
+x11+x15+x42+x31+x35+x44-2x23 >= 0;
+x12+x16+x43+x32+x36+x45-2x24 >= 0;
+x13+x17+x44+x33+x37+x46-2x25 >= 0;
+x14+x45+x34+x47-2x26 >= 0;
+x15+x46+x35-2x27 >= 0;
+x23+x12+x43+x52-2x31 >= 0;
+x11+x24+x51+x13+x44+x53-2x32 >= 0;
+x21+x12+x25+x52+x41+x14+x45+x54-2x33 >= 0;
+x22+x13+x26+x53+x42+x15+x46+x55-2x34 >= 0;
+x23+x14+x27+x54+x43+x16+x47+x56-2x35 >= 0;
+x24+x15+x55+x44+x17+x57-2x36 >= 0;
+x25+x16+x56+x45-2x37 >= 0;
+x33+x22+x53+x62-2x41 >= 0;
+x21+x34+x61+x23+x54+x63-2x42 >= 0;
+x31+x22+x35+x62+x51+x24+x55+x64-2x43 >= 0;
+x32+x23+x36+x63+x52+x25+x56+x65-2x44 >= 0;
+x33+x24+x37+x64+x53+x26+x57+x66-2x45 >= 0;
+x34+x25+x65+x54+x27+x67-2x46 >= 0;
+x35+x26+x66+x55-2x47 >= 0;
+x43+x32+x63+x72-2x51 >= 0;
+x31+x44+x71+x33+x64+x73-2x52 >= 0;
+x41+x32+x45+x72+x61+x34+x65+x74-2x53 >= 0;
+x42+x33+x46+x73+x62+x35+x66+x75-2x54 >= 0;
+x43+x34+x47+x74+x63+x36+x67+x76-2x55 >= 0;
+x44+x35+x75+x64+x37+x77-2x56 >= 0;
+x45+x36+x76+x65-2x57 >= 0;
+x53+x42+x73-2x61 >= 0;
+x41+x54+x43+x74-2x62 >= 0;
+x51+x42+x55+x71+x44+x75-2x63 >= 0;
+x52+x43+x56+x72+x45+x76-2x64 >= 0;
+x53+x44+x57+x73+x46+x77-2x65 >= 0;
+x54+x45+x74+x47-2x66 >= 0;
+x55+x46+x75-2x67 >= 0;
+x63+x52-2x71 >= 0;
+x51+x64+x53-2x72 >= 0;
+x61+x52+x65+x54-2x73 >= 0;
+x62+x53+x66+x55-2x74 >= 0;
+x63+x54+x67+x56-2x75 >= 0;
+x64+x55+x57-2x76 >= 0;
+x65+x56-2x77 >= 0;
+x23+x32+6x11 <= 8;
+x31+x24+x33+6x12 <= 8;
+x32+x21+x25+x34+6x13 <= 8;
+x33+x22+x26+x35+6x14 <= 8;
+x34+x23+x27+x36+6x15 <= 8;
+x35+x24+x37+6x16 <= 8;
+x36+x25+6x17 <= 8;
+x13+x33+x42+6x21 <= 8;
+x14+x41+x34+x43+6x22 <= 8;
+x11+x15+x42+x31+x35+x44+6x23 <= 8;
+x12+x16+x43+x32+x36+x45+6x24 <= 8;
+x13+x17+x44+x33+x37+x46+6x25 <= 8;
+x14+x45+x34+x47+6x26 <= 8;
+x15+x46+x35+6x27 <= 8;
+x23+x12+x43+x52+6x31 <= 8;
+x11+x24+x51+x13+x44+x53+6x32 <= 8;
+x21+x12+x25+x52+x41+x14+x45+x54+6x33 <= 8;
+x22+x13+x26+x53+x42+x15+x46+x55+6x34 <= 8;
+x23+x14+x27+x54+x43+x16+x47+x56+6x35 <= 8;
+x24+x15+x55+x44+x17+x57+6x36 <= 8;
+x25+x16+x56+x45+6x37 <= 8;
+x33+x22+x53+x62+6x41 <= 8;
+x21+x34+x61+x23+x54+x63+6x42 <= 8;
+x31+x22+x35+x62+x51+x24+x55+x64+6x43 <= 8;
+x32+x23+x36+x63+x52+x25+x56+x65+6x44 <= 8;
+x33+x24+x37+x64+x53+x26+x57+x66+6x45 <= 8;
+x34+x25+x65+x54+x27+x67+6x46 <= 8;
+x35+x26+x66+x55+6x47 <= 8;
+x43+x32+x63+x72+6x51 <= 8;
+x31+x44+x71+x33+x64+x73+6x52 <= 8;
+x41+x32+x45+x72+x61+x34+x65+x74+6x53 <= 8;
+x42+x33+x46+x73+x62+x35+x66+x75+6x54 <= 8;
+x43+x34+x47+x74+x63+x36+x67+x76+6x55 <= 8;
+x44+x35+x75+x64+x37+x77+6x56 <= 8;
+x45+x36+x76+x65+6x57 <= 8;
+x53+x42+x73+6x61 <= 8;
+x41+x54+x43+x74+6x62 <= 8;
+x51+x42+x55+x71+x44+x75+6x63 <= 8;
+x52+x43+x56+x72+x45+x76+6x64 <= 8;
+x53+x44+x57+x73+x46+x77+6x65 <= 8;
+x54+x45+x74+x47+6x66 <= 8;
+x55+x46+x75+6x67 <= 8;
+x63+x52+6x71 <= 8;
+x51+x64+x53+6x72 <= 8;
+x61+x52+x65+x54+6x73 <= 8;
+x62+x53+x66+x55+6x74 <= 8;
+x63+x54+x67+x56+6x75 <= 8;
+x64+x55+x57+6x76 <= 8;
+x65+x56+6x77 <= 8;
bin x11,x12,x13,x14,x15,x16,x17,x21,x22,x23,x24,x25,x26,x27,x31,x32,x33,x34,x35,x36,x37,x41,x42,x43,x44,x45,x46,x47,x51,x52,x53,x54,x55,x56,x57,x61,x62,x63,x64,x65,x66,x67,x71,x72,x73,x74,x75,x76,x77;